generated by phonopy                    
   1.00000000000000     
     2.9489545623763940   -0.0000000002619126    0.0000000005901303
    -0.0000000002715928    2.9489545625584022    0.0000000000876478
     0.0000000009174665   -0.0000000000499839    3.9008669022989584
   Be   Ba   H 
     1     1     4
Direct
  0.0000000002150412 -0.0000000003381198  0.5000000077041105
  0.4999999999745994  0.4999999999739971 -0.0000000014840092
 -0.0000000001432694  0.4999999997882609  0.4999999999010179
  0.5000000000697838  0.0000000002377122  0.4999999999924735
  0.0000000001226291  0.0000000002054317  0.1743295876460635
 -0.0000000002387843  0.0000000001327179  0.8256704062403439
 
  0.00000000E+00  0.00000000E+00  0.00000000E+00
  0.00000000E+00  0.00000000E+00  0.00000000E+00
  0.00000000E+00  0.00000000E+00  0.00000000E+00
  0.00000000E+00  0.00000000E+00  0.00000000E+00
  0.00000000E+00  0.00000000E+00  0.00000000E+00
  0.00000000E+00  0.00000000E+00  0.00000000E+00
